MARKOV
40
2 2 2 2 2 2 2 2 2 2 2 2 2 2 2 2 2 2 2 2 2 2 2 2 2 2 2 2 2 2 2 2 2 2 2 2 2 2 2 2 
440
1	0 
1	1 
1	2 
1	3 
1	4 
1	5 
1	6 
1	7 
1	8 
1	9 
1	10 
1	11 
1	12 
1	13 
1	14 
1	15 
1	16 
1	17 
1	18 
1	19 
1	20 
1	21 
1	22 
1	23 
1	24 
1	25 
1	26 
1	27 
1	28 
1	29 
1	30 
1	31 
1	32 
1	33 
1	34 
1	35 
1	36 
1	37 
1	38 
1	39 
2	0 20 
2	0 21 
2	0 22 
2	0 23 
2	0 24 
2	0 25 
2	0 26 
2	0 27 
2	0 28 
2	0 29 
2	0 30 
2	0 31 
2	0 32 
2	0 33 
2	0 34 
2	0 35 
2	0 36 
2	0 37 
2	0 38 
2	0 39 
2	1 20 
2	1 21 
2	1 22 
2	1 23 
2	1 24 
2	1 25 
2	1 26 
2	1 27 
2	1 28 
2	1 29 
2	1 30 
2	1 31 
2	1 32 
2	1 33 
2	1 34 
2	1 35 
2	1 36 
2	1 37 
2	1 38 
2	1 39 
2	2 20 
2	2 21 
2	2 22 
2	2 23 
2	2 24 
2	2 25 
2	2 26 
2	2 27 
2	2 28 
2	2 29 
2	2 30 
2	2 31 
2	2 32 
2	2 33 
2	2 34 
2	2 35 
2	2 36 
2	2 37 
2	2 38 
2	2 39 
2	3 20 
2	3 21 
2	3 22 
2	3 23 
2	3 24 
2	3 25 
2	3 26 
2	3 27 
2	3 28 
2	3 29 
2	3 30 
2	3 31 
2	3 32 
2	3 33 
2	3 34 
2	3 35 
2	3 36 
2	3 37 
2	3 38 
2	3 39 
2	4 20 
2	4 21 
2	4 22 
2	4 23 
2	4 24 
2	4 25 
2	4 26 
2	4 27 
2	4 28 
2	4 29 
2	4 30 
2	4 31 
2	4 32 
2	4 33 
2	4 34 
2	4 35 
2	4 36 
2	4 37 
2	4 38 
2	4 39 
2	5 20 
2	5 21 
2	5 22 
2	5 23 
2	5 24 
2	5 25 
2	5 26 
2	5 27 
2	5 28 
2	5 29 
2	5 30 
2	5 31 
2	5 32 
2	5 33 
2	5 34 
2	5 35 
2	5 36 
2	5 37 
2	5 38 
2	5 39 
2	6 20 
2	6 21 
2	6 22 
2	6 23 
2	6 24 
2	6 25 
2	6 26 
2	6 27 
2	6 28 
2	6 29 
2	6 30 
2	6 31 
2	6 32 
2	6 33 
2	6 34 
2	6 35 
2	6 36 
2	6 37 
2	6 38 
2	6 39 
2	7 20 
2	7 21 
2	7 22 
2	7 23 
2	7 24 
2	7 25 
2	7 26 
2	7 27 
2	7 28 
2	7 29 
2	7 30 
2	7 31 
2	7 32 
2	7 33 
2	7 34 
2	7 35 
2	7 36 
2	7 37 
2	7 38 
2	7 39 
2	8 20 
2	8 21 
2	8 22 
2	8 23 
2	8 24 
2	8 25 
2	8 26 
2	8 27 
2	8 28 
2	8 29 
2	8 30 
2	8 31 
2	8 32 
2	8 33 
2	8 34 
2	8 35 
2	8 36 
2	8 37 
2	8 38 
2	8 39 
2	9 20 
2	9 21 
2	9 22 
2	9 23 
2	9 24 
2	9 25 
2	9 26 
2	9 27 
2	9 28 
2	9 29 
2	9 30 
2	9 31 
2	9 32 
2	9 33 
2	9 34 
2	9 35 
2	9 36 
2	9 37 
2	9 38 
2	9 39 
2	10 20 
2	10 21 
2	10 22 
2	10 23 
2	10 24 
2	10 25 
2	10 26 
2	10 27 
2	10 28 
2	10 29 
2	10 30 
2	10 31 
2	10 32 
2	10 33 
2	10 34 
2	10 35 
2	10 36 
2	10 37 
2	10 38 
2	10 39 
2	11 20 
2	11 21 
2	11 22 
2	11 23 
2	11 24 
2	11 25 
2	11 26 
2	11 27 
2	11 28 
2	11 29 
2	11 30 
2	11 31 
2	11 32 
2	11 33 
2	11 34 
2	11 35 
2	11 36 
2	11 37 
2	11 38 
2	11 39 
2	12 20 
2	12 21 
2	12 22 
2	12 23 
2	12 24 
2	12 25 
2	12 26 
2	12 27 
2	12 28 
2	12 29 
2	12 30 
2	12 31 
2	12 32 
2	12 33 
2	12 34 
2	12 35 
2	12 36 
2	12 37 
2	12 38 
2	12 39 
2	13 20 
2	13 21 
2	13 22 
2	13 23 
2	13 24 
2	13 25 
2	13 26 
2	13 27 
2	13 28 
2	13 29 
2	13 30 
2	13 31 
2	13 32 
2	13 33 
2	13 34 
2	13 35 
2	13 36 
2	13 37 
2	13 38 
2	13 39 
2	14 20 
2	14 21 
2	14 22 
2	14 23 
2	14 24 
2	14 25 
2	14 26 
2	14 27 
2	14 28 
2	14 29 
2	14 30 
2	14 31 
2	14 32 
2	14 33 
2	14 34 
2	14 35 
2	14 36 
2	14 37 
2	14 38 
2	14 39 
2	15 20 
2	15 21 
2	15 22 
2	15 23 
2	15 24 
2	15 25 
2	15 26 
2	15 27 
2	15 28 
2	15 29 
2	15 30 
2	15 31 
2	15 32 
2	15 33 
2	15 34 
2	15 35 
2	15 36 
2	15 37 
2	15 38 
2	15 39 
2	16 20 
2	16 21 
2	16 22 
2	16 23 
2	16 24 
2	16 25 
2	16 26 
2	16 27 
2	16 28 
2	16 29 
2	16 30 
2	16 31 
2	16 32 
2	16 33 
2	16 34 
2	16 35 
2	16 36 
2	16 37 
2	16 38 
2	16 39 
2	17 20 
2	17 21 
2	17 22 
2	17 23 
2	17 24 
2	17 25 
2	17 26 
2	17 27 
2	17 28 
2	17 29 
2	17 30 
2	17 31 
2	17 32 
2	17 33 
2	17 34 
2	17 35 
2	17 36 
2	17 37 
2	17 38 
2	17 39 
2	18 20 
2	18 21 
2	18 22 
2	18 23 
2	18 24 
2	18 25 
2	18 26 
2	18 27 
2	18 28 
2	18 29 
2	18 30 
2	18 31 
2	18 32 
2	18 33 
2	18 34 
2	18 35 
2	18 36 
2	18 37 
2	18 38 
2	18 39 
2	19 20 
2	19 21 
2	19 22 
2	19 23 
2	19 24 
2	19 25 
2	19 26 
2	19 27 
2	19 28 
2	19 29 
2	19 30 
2	19 31 
2	19 32 
2	19 33 
2	19 34 
2	19 35 
2	19 36 
2	19 37 
2	19 38 
2	19 39 

2
0.269600 3.709197 

2
1.096650 0.911868 

2
0.538696 1.856333 

2
0.773005 1.293653 

2
0.509693 1.961965 

2
0.235686 4.242941 

2
1.399772 0.714402 

2
0.389590 2.566801 

2
2.597444 0.384994 

2
0.663477 1.507212 

2
0.393427 2.541766 

2
0.300596 3.326728 

2
0.285130 3.507171 

2
7.164795 0.139571 

2
0.556269 1.797691 

2
0.862792 1.159028 

2
2.872521 0.348126 

2
1.000058 0.999942 

2
0.300342 3.329535 

2
2.776711 0.360138 

2
0.935143 1.069355 

2
0.995247 1.004776 

2
0.995523 1.004497 

2
0.434883 2.299470 

2
0.233190 4.288351 

2
0.641788 1.558146 

2
3.106988 0.321855 

2
0.103785 9.635347 

2
0.169953 5.883964 

2
2.579325 0.387698 

2
0.415014 2.409555 

2
2.109084 0.474140 

2
0.368534 2.713453 

2
0.694206 1.440495 

2
0.750090 1.333174 

2
1.108641 0.902005 

2
0.490718 2.037830 

2
0.228120 4.383653 

2
1.759982 0.568188 

2
0.903835 1.106397 

4
5.093994 0.196310 0.196310 5.093994 

4
1.158176 0.863427 0.863427 1.158176 

4
3.422928 0.292148 0.292148 3.422928 

4
10.172820 0.098301 0.098301 10.172820 

4
1.332649 0.750385 0.750385 1.332649 

4
2.679009 0.373272 0.373272 2.679009 

4
2.043961 0.489246 0.489246 2.043961 

4
2.777827 0.359994 0.359994 2.777827 

4
3.150414 0.317419 0.317419 3.150414 

4
1.034442 0.966705 0.966705 1.034442 

4
6.261158 0.159715 0.159715 6.261158 

4
6.217079 0.160847 0.160847 6.217079 

4
1.144293 0.873902 0.873902 1.144293 

4
1.003516 0.996496 0.996496 1.003516 

4
7.869230 0.127077 0.127077 7.869230 

4
1.146833 0.871967 0.871967 1.146833 

4
1.103525 0.906187 0.906187 1.103525 

4
2.931148 0.341163 0.341163 2.931148 

4
1.405759 0.711360 0.711360 1.405759 

4
3.131903 0.319295 0.319295 3.131903 

4
2.532657 0.394842 0.394842 2.532657 

4
6.559407 0.152453 0.152453 6.559407 

4
2.015212 0.496226 0.496226 2.015212 

4
1.138382 0.878440 0.878440 1.138382 

4
1.578384 0.633559 0.633559 1.578384 

4
1.265957 0.789916 0.789916 1.265957 

4
4.455962 0.224418 0.224418 4.455962 

4
1.192153 0.838818 0.838818 1.192153 

4
1.024596 0.975994 0.975994 1.024596 

4
2.324148 0.430265 0.430265 2.324148 

4
6.290801 0.158962 0.158962 6.290801 

4
2.753795 0.363135 0.363135 2.753795 

4
2.777475 0.360039 0.360039 2.777475 

4
6.449671 0.155047 0.155047 6.449671 

4
1.818272 0.549973 0.549973 1.818272 

4
4.115859 0.242963 0.242963 4.115859 

4
2.715382 0.368272 0.368272 2.715382 

4
3.147726 0.317690 0.317690 3.147726 

4
2.022118 0.494531 0.494531 2.022118 

4
3.594686 0.278188 0.278188 3.594686 

4
3.696358 0.270537 0.270537 3.696358 

4
4.885456 0.204689 0.204689 4.885456 

4
4.857763 0.205856 0.205856 4.857763 

4
9.997671 0.100023 0.100023 9.997671 

4
1.963845 0.509205 0.509205 1.963845 

4
2.391891 0.418079 0.418079 2.391891 

4
1.692301 0.590911 0.590911 1.692301 

4
3.104561 0.322107 0.322107 3.104561 

4
3.805737 0.262761 0.262761 3.805737 

4
1.338955 0.746851 0.746851 1.338955 

4
1.025876 0.974777 0.974777 1.025876 

4
5.663114 0.176581 0.176581 5.663114 

4
1.547935 0.646022 0.646022 1.547935 

4
2.829298 0.353445 0.353445 2.829298 

4
4.042807 0.247353 0.247353 4.042807 

4
1.064466 0.939439 0.939439 1.064466 

4
4.122073 0.242596 0.242596 4.122073 

4
3.703864 0.269988 0.269988 3.703864 

4
1.031016 0.969917 0.969917 1.031016 

4
2.409020 0.415107 0.415107 2.409020 

4
1.095304 0.912989 0.912989 1.095304 

4
1.051513 0.951010 0.951010 1.051513 

4
1.304104 0.766810 0.766810 1.304104 

4
1.746203 0.572671 0.572671 1.746203 

4
7.916327 0.126321 0.126321 7.916327 

4
2.577685 0.387945 0.387945 2.577685 

4
1.511954 0.661396 0.661396 1.511954 

4
12.176240 0.082127 0.082127 12.176240 

4
2.464524 0.405758 0.405758 2.464524 

4
5.629892 0.177623 0.177623 5.629892 

4
1.451788 0.688806 0.688806 1.451788 

4
1.392986 0.717882 0.717882 1.392986 

4
5.488861 0.182187 0.182187 5.488861 

4
2.100841 0.476000 0.476000 2.100841 

4
1.270368 0.787173 0.787173 1.270368 

4
1.335608 0.748723 0.748723 1.335608 

4
1.279661 0.781457 0.781457 1.279661 

4
5.073715 0.197094 0.197094 5.073715 

4
4.926074 0.203001 0.203001 4.926074 

4
1.407182 0.710640 0.710640 1.407182 

4
5.319708 0.187980 0.187980 5.319708 

4
2.502481 0.399604 0.399604 2.502481 

4
1.444189 0.692430 0.692430 1.444189 

4
1.039238 0.962243 0.962243 1.039238 

4
3.965496 0.252175 0.252175 3.965496 

4
1.362199 0.734107 0.734107 1.362199 

4
1.018411 0.981922 0.981922 1.018411 

4
1.455249 0.687168 0.687168 1.455249 

4
1.117872 0.894557 0.894557 1.117872 

4
2.242678 0.445896 0.445896 2.242678 

4
10.403929 0.096118 0.096118 10.403929 

4
4.584388 0.218132 0.218132 4.584388 

4
11.080118 0.090252 0.090252 11.080118 

4
1.409409 0.709517 0.709517 1.409409 

4
13.377855 0.074750 0.074750 13.377855 

4
5.952525 0.167996 0.167996 5.952525 

4
4.618228 0.216533 0.216533 4.618228 

4
1.006395 0.993645 0.993645 1.006395 

4
2.979757 0.335598 0.335598 2.979757 

4
1.663725 0.601061 0.601061 1.663725 

4
2.698027 0.370641 0.370641 2.698027 

4
1.993288 0.501684 0.501684 1.993288 

4
1.403383 0.712564 0.712564 1.403383 

4
10.455775 0.095641 0.095641 10.455775 

4
1.428139 0.700212 0.700212 1.428139 

4
3.722675 0.268624 0.268624 3.722675 

4
7.013468 0.142583 0.142583 7.013468 

4
1.826562 0.547477 0.547477 1.826562 

4
1.510853 0.661878 0.661878 1.510853 

4
1.051125 0.951362 0.951362 1.051125 

4
15.592705 0.064133 0.064133 15.592705 

4
6.916209 0.144588 0.144588 6.916209 

4
2.889951 0.346027 0.346027 2.889951 

4
1.802813 0.554689 0.554689 1.802813 

4
1.595381 0.626810 0.626810 1.595381 

4
2.134069 0.468588 0.468588 2.134069 

4
6.408525 0.156042 0.156042 6.408525 

4
1.014192 0.986007 0.986007 1.014192 

4
2.287426 0.437173 0.437173 2.287426 

4
1.193834 0.837637 0.837637 1.193834 

4
4.574955 0.218581 0.218581 4.574955 

4
1.104292 0.905558 0.905558 1.104292 

4
4.443103 0.225068 0.225068 4.443103 

4
3.979584 0.251283 0.251283 3.979584 

4
1.828375 0.546934 0.546934 1.828375 

4
3.810168 0.262456 0.262456 3.810168 

4
1.258128 0.794832 0.794832 1.258128 

4
2.372869 0.421431 0.421431 2.372869 

4
3.040559 0.328887 0.328887 3.040559 

4
2.860953 0.349534 0.349534 2.860953 

4
2.351206 0.425314 0.425314 2.351206 

4
3.578190 0.279471 0.279471 3.578190 

4
2.524836 0.396065 0.396065 2.524836 

4
1.601182 0.624539 0.624539 1.601182 

4
1.137295 0.879280 0.879280 1.137295 

4
2.033154 0.491847 0.491847 2.033154 

4
2.497266 0.400438 0.400438 2.497266 

4
2.463726 0.405889 0.405889 2.463726 

4
1.482479 0.674546 0.674546 1.482479 

4
2.525371 0.395981 0.395981 2.525371 

4
1.349552 0.740987 0.740987 1.349552 

4
2.225063 0.449426 0.449426 2.225063 

4
1.211433 0.825469 0.825469 1.211433 

4
1.640426 0.609598 0.609598 1.640426 

4
2.254674 0.443523 0.443523 2.254674 

4
4.720483 0.211843 0.211843 4.720483 

4
3.022406 0.330862 0.330862 3.022406 

4
1.152010 0.868048 0.868048 1.152010 

4
1.372063 0.728829 0.728829 1.372063 

4
2.351960 0.425177 0.425177 2.351960 

4
5.823507 0.171718 0.171718 5.823507 

4
2.062633 0.484817 0.484817 2.062633 

4
4.077625 0.245241 0.245241 4.077625 

4
1.126112 0.888011 0.888011 1.126112 

4
2.704857 0.369705 0.369705 2.704857 

4
1.980983 0.504800 0.504800 1.980983 

4
1.359853 0.735374 0.735374 1.359853 

4
1.196610 0.835694 0.835694 1.196610 

4
2.053868 0.486886 0.486886 2.053868 

4
1.470732 0.679933 0.679933 1.470732 

4
1.155367 0.865526 0.865526 1.155367 

4
1.281873 0.780109 0.780109 1.281873 

4
1.110870 0.900196 0.900196 1.110870 

4
5.376317 0.186001 0.186001 5.376317 

4
1.347504 0.742113 0.742113 1.347504 

4
1.334580 0.749299 0.749299 1.334580 

4
1.807372 0.553290 0.553290 1.807372 

4
1.264962 0.790538 0.790538 1.264962 

4
1.426813 0.700862 0.700862 1.426813 

4
1.741000 0.574382 0.574382 1.741000 

4
3.357215 0.297866 0.297866 3.357215 

4
1.103453 0.906246 0.906246 1.103453 

4
2.053478 0.486979 0.486979 2.053478 

4
6.188073 0.161601 0.161601 6.188073 

4
2.006623 0.498350 0.498350 2.006623 

4
5.034607 0.198625 0.198625 5.034607 

4
2.128684 0.469774 0.469774 2.128684 

4
2.023282 0.494246 0.494246 2.023282 

4
3.099447 0.322638 0.322638 3.099447 

4
1.289379 0.775567 0.775567 1.289379 

4
2.872343 0.348148 0.348148 2.872343 

4
2.511011 0.398246 0.398246 2.511011 

4
2.290008 0.436680 0.436680 2.290008 

4
3.778986 0.264621 0.264621 3.778986 

4
2.397378 0.417122 0.417122 2.397378 

4
1.758606 0.568632 0.568632 1.758606 

4
5.934655 0.168502 0.168502 5.934655 

4
1.429613 0.699490 0.699490 1.429613 

4
1.023811 0.976743 0.976743 1.023811 

4
4.804771 0.208126 0.208126 4.804771 

4
1.080016 0.925912 0.925912 1.080016 

4
1.465383 0.682416 0.682416 1.465383 

4
1.915151 0.522152 0.522152 1.915151 

4
1.932322 0.517512 0.517512 1.932322 

4
1.027935 0.972824 0.972824 1.027935 

4
4.263909 0.234527 0.234527 4.263909 

4
1.818760 0.549825 0.549825 1.818760 

4
1.852128 0.539919 0.539919 1.852128 

4
2.113728 0.473098 0.473098 2.113728 

4
5.641695 0.177252 0.177252 5.641695 

4
1.266506 0.789574 0.789574 1.266506 

4
1.598253 0.625683 0.625683 1.598253 

4
1.894573 0.527824 0.527824 1.894573 

4
1.281852 0.780121 0.780121 1.281852 

4
2.462756 0.406049 0.406049 2.462756 

4
2.016797 0.495836 0.495836 2.016797 

4
3.248309 0.307852 0.307852 3.248309 

4
6.374603 0.156873 0.156873 6.374603 

4
1.123992 0.889686 0.889686 1.123992 

4
1.976614 0.505916 0.505916 1.976614 

4
1.168303 0.855943 0.855943 1.168303 

4
2.043794 0.489286 0.489286 2.043794 

4
1.228471 0.814020 0.814020 1.228471 

4
4.364519 0.229120 0.229120 4.364519 

4
1.064329 0.939559 0.939559 1.064329 

4
5.617202 0.178025 0.178025 5.617202 

4
3.700807 0.270211 0.270211 3.700807 

4
2.906807 0.344020 0.344020 2.906807 

4
2.700169 0.370347 0.370347 2.700169 

4
1.396880 0.715881 0.715881 1.396880 

4
1.492457 0.670036 0.670036 1.492457 

4
1.864646 0.536295 0.536295 1.864646 

4
1.106877 0.903443 0.903443 1.106877 

4
1.400665 0.713947 0.713947 1.400665 

4
3.775166 0.264889 0.264889 3.775166 

4
1.457834 0.685949 0.685949 1.457834 

4
1.061109 0.942410 0.942410 1.061109 

4
1.400519 0.714021 0.714021 1.400519 

4
1.209649 0.826686 0.826686 1.209649 

4
2.151198 0.464857 0.464857 2.151198 

4
2.574065 0.388491 0.388491 2.574065 

4
1.861524 0.537194 0.537194 1.861524 

4
1.079125 0.926676 0.926676 1.079125 

4
2.571949 0.388810 0.388810 2.571949 

4
1.111326 0.899826 0.899826 1.111326 

4
1.969936 0.507631 0.507631 1.969936 

4
2.769088 0.361130 0.361130 2.769088 

4
3.592078 0.278390 0.278390 3.592078 

4
5.984004 0.167112 0.167112 5.984004 

4
3.373338 0.296442 0.296442 3.373338 

4
2.607055 0.383575 0.383575 2.607055 

4
1.707782 0.585555 0.585555 1.707782 

4
3.629337 0.275532 0.275532 3.629337 

4
1.561907 0.640243 0.640243 1.561907 

4
1.211319 0.825546 0.825546 1.211319 

4
2.715220 0.368294 0.368294 2.715220 

4
3.258292 0.306909 0.306909 3.258292 

4
1.114979 0.896878 0.896878 1.114979 

4
5.356243 0.186698 0.186698 5.356243 

4
1.335373 0.748854 0.748854 1.335373 

4
1.794420 0.557283 0.557283 1.794420 

4
1.806677 0.553502 0.553502 1.806677 

4
3.879233 0.257783 0.257783 3.879233 

4
4.365789 0.229054 0.229054 4.365789 

4
1.328875 0.752516 0.752516 1.328875 

4
4.173508 0.239607 0.239607 4.173508 

4
3.990150 0.250617 0.250617 3.990150 

4
2.293812 0.435955 0.435955 2.293812 

4
7.168559 0.139498 0.139498 7.168559 

4
1.131434 0.883834 0.883834 1.131434 

4
9.882507 0.101189 0.101189 9.882507 

4
1.496128 0.668392 0.668392 1.496128 

4
1.804225 0.554255 0.554255 1.804225 

4
6.558445 0.152475 0.152475 6.558445 

4
1.939815 0.515513 0.515513 1.939815 

4
1.043826 0.958014 0.958014 1.043826 

4
1.816637 0.550468 0.550468 1.816637 

4
1.665877 0.600284 0.600284 1.665877 

4
1.559971 0.641038 0.641038 1.559971 

4
3.232685 0.309340 0.309340 3.232685 

4
2.036912 0.490939 0.490939 2.036912 

4
1.659944 0.602430 0.602430 1.659944 

4
10.266737 0.097402 0.097402 10.266737 

4
1.252878 0.798162 0.798162 1.252878 

4
1.015657 0.984584 0.984584 1.015657 

4
2.354782 0.424668 0.424668 2.354782 

4
7.420018 0.134771 0.134771 7.420018 

4
1.121516 0.891650 0.891650 1.121516 

4
3.367055 0.296995 0.296995 3.367055 

4
2.198528 0.454850 0.454850 2.198528 

4
1.438229 0.695300 0.695300 1.438229 

4
8.411676 0.118882 0.118882 8.411676 

4
3.206524 0.311864 0.311864 3.206524 

4
1.063537 0.940258 0.940258 1.063537 

4
2.239769 0.446475 0.446475 2.239769 

4
1.133786 0.882001 0.882001 1.133786 

4
5.025258 0.198995 0.198995 5.025258 

4
1.128767 0.885923 0.885923 1.128767 

4
1.246483 0.802257 0.802257 1.246483 

4
7.440054 0.134408 0.134408 7.440054 

4
6.680748 0.149684 0.149684 6.680748 

4
1.702994 0.587201 0.587201 1.702994 

4
1.035098 0.966092 0.966092 1.035098 

4
2.915743 0.342966 0.342966 2.915743 

4
1.329322 0.752263 0.752263 1.329322 

4
3.498240 0.285858 0.285858 3.498240 

4
2.287045 0.437245 0.437245 2.287045 

4
3.400955 0.294035 0.294035 3.400955 

4
1.073844 0.931234 0.931234 1.073844 

4
1.537707 0.650319 0.650319 1.537707 

4
2.171711 0.460466 0.460466 2.171711 

4
1.555589 0.642843 0.642843 1.555589 

4
4.791051 0.208722 0.208722 4.791051 

4
8.156248 0.122605 0.122605 8.156248 

4
1.473445 0.678681 0.678681 1.473445 

4
1.038995 0.962469 0.962469 1.038995 

4
7.535015 0.132714 0.132714 7.535015 

4
3.437814 0.290883 0.290883 3.437814 

4
1.138205 0.878576 0.878576 1.138205 

4
2.096019 0.477095 0.477095 2.096019 

4
2.190937 0.456426 0.456426 2.190937 

4
5.251056 0.190438 0.190438 5.251056 

4
2.616012 0.382261 0.382261 2.616012 

4
1.441658 0.693646 0.693646 1.441658 

4
1.544406 0.647498 0.647498 1.544406 

4
1.026022 0.974638 0.974638 1.026022 

4
1.497694 0.667693 0.667693 1.497694 

4
2.299942 0.434794 0.434794 2.299942 

4
1.008461 0.991610 0.991610 1.008461 

4
2.201587 0.454218 0.454218 2.201587 

4
1.615412 0.619037 0.619037 1.615412 

4
1.290839 0.774690 0.774690 1.290839 

4
3.236624 0.308964 0.308964 3.236624 

4
3.888210 0.257188 0.257188 3.888210 

4
1.327393 0.753356 0.753356 1.327393 

4
1.688197 0.592348 0.592348 1.688197 

4
2.669854 0.374552 0.374552 2.669854 

4
7.096823 0.140908 0.140908 7.096823 

4
2.562458 0.390250 0.390250 2.562458 

4
2.204288 0.453661 0.453661 2.204288 

4
7.059556 0.141652 0.141652 7.059556 

4
1.811449 0.552044 0.552044 1.811449 

4
2.110739 0.473768 0.473768 2.110739 

4
1.150997 0.868812 0.868812 1.150997 

4
5.644641 0.177159 0.177159 5.644641 

4
2.363343 0.423129 0.423129 2.363343 

4
2.226524 0.449130 0.449130 2.226524 

4
4.310813 0.231975 0.231975 4.310813 

4
1.318505 0.758435 0.758435 1.318505 

4
2.110270 0.473873 0.473873 2.110270 

4
1.990948 0.502273 0.502273 1.990948 

4
1.566854 0.638221 0.638221 1.566854 

4
1.677189 0.596236 0.596236 1.677189 

4
1.914619 0.522297 0.522297 1.914619 

4
1.928818 0.518452 0.518452 1.928818 

4
1.560550 0.640800 0.640800 1.560550 

4
1.338906 0.746878 0.746878 1.338906 

4
7.671427 0.130354 0.130354 7.671427 

4
1.150334 0.869313 0.869313 1.150334 

4
1.586050 0.630497 0.630497 1.586050 

4
2.448327 0.408442 0.408442 2.448327 

4
1.942371 0.514835 0.514835 1.942371 

4
9.130879 0.109518 0.109518 9.130879 

4
1.649874 0.606107 0.606107 1.649874 

4
2.499483 0.400083 0.400083 2.499483 

4
2.274310 0.439694 0.439694 2.274310 

4
3.628737 0.275578 0.275578 3.628737 

4
1.339054 0.746796 0.746796 1.339054 

4
1.549865 0.645218 0.645218 1.549865 

4
2.819491 0.354674 0.354674 2.819491 

4
3.353382 0.298206 0.298206 3.353382 

4
1.006040 0.993996 0.993996 1.006040 

4
1.064356 0.939535 0.939535 1.064356 

4
1.750894 0.571137 0.571137 1.750894 

4
3.387788 0.295178 0.295178 3.387788 

4
5.001706 0.199932 0.199932 5.001706 

4
1.236715 0.808594 0.808594 1.236715 

4
3.024528 0.330630 0.330630 3.024528 

4
3.164928 0.315963 0.315963 3.164928 

4
1.366310 0.731899 0.731899 1.366310 

4
3.252738 0.307433 0.307433 3.252738 

4
1.544357 0.647519 0.647519 1.544357 

4
1.330920 0.751360 0.751360 1.330920 

4
2.456646 0.407059 0.407059 2.456646 

4
6.158478 0.162378 0.162378 6.158478 

4
1.482415 0.674575 0.674575 1.482415 

4
1.474444 0.678222 0.678222 1.474444 

4
2.579027 0.387743 0.387743 2.579027 

4
2.039237 0.490379 0.490379 2.039237 

4
1.512676 0.661080 0.661080 1.512676 

4
1.058050 0.945135 0.945135 1.058050 

4
1.166253 0.857447 0.857447 1.166253 

4
4.856898 0.205893 0.205893 4.856898 

4
2.296191 0.435504 0.435504 2.296191 

4
2.033431 0.491780 0.491780 2.033431 

4
2.571715 0.388846 0.388846 2.571715 

4
4.209329 0.237568 0.237568 4.209329 

4
1.605522 0.622850 0.622850 1.605522 

4
1.166474 0.857284 0.857284 1.166474 

4
1.106612 0.903659 0.903659 1.106612 

4
5.448458 0.183538 0.183538 5.448458 

4
7.372616 0.135637 0.135637 7.372616 

4
3.002390 0.333068 0.333068 3.002390 

4
2.034507 0.491520 0.491520 2.034507 

4
6.842156 0.146153 0.146153 6.842156 

4
3.676046 0.272031 0.272031 3.676046 

4
1.593457 0.627566 0.627566 1.593457 

4
1.155704 0.865274 0.865274 1.155704 

4
1.210121 0.826364 0.826364 1.210121 

4
1.530455 0.653400 0.653400 1.530455 

